(declare-fun symvar290906254 () Int)
(declare-fun symvar117464652 () Int)
(declare-fun symvar170792339 () Int)
(assert ( and ( and ( and ( and ( and ( and ( and ( and ( and ( and ( and ( and ( and true ( not ( > 0 symvar170792339))) ( not ( < symvar170792339 42))) ( not ( > symvar170792339 45))) ( not ( < symvar170792339 30))) ( not ( > symvar170792339 40))) ( > symvar170792339 symvar117464652)) ( < symvar170792339 42)) ( < symvar170792339 40)) ( > symvar170792339 30)) ( < symvar170792339 28)) ( not ( > symvar170792339 45))) ( not ( < symvar170792339 30))) ( not ( > symvar170792339 40))))
(check-sat)
(get-model)
(exit)
